Input: forum-13crafb.prec15.dzn
============================================================
Total Runtime: 1.3955 seconds
Input parsing: 0.0035 seconds
Constraint building: 0.7382 seconds
MaxSAT solving: 0.1790 seconds
============================================================

Total variables: 222922
Total clauses: 463517
MaxSAT found with cost: N/A
NO SOLUTION FOUND
